unknown
(model
; cardinality of BoundSet is 7
(declare-sort BoundSet 0)
; rep: @uc_BoundSet_0
; rep: @uc_BoundSet_1
; rep: @uc_BoundSet_2
; rep: @uc_BoundSet_3
; rep: @uc_BoundSet_4
; rep: @uc_BoundSet_5
; rep: @uc_BoundSet_6
; cardinality of UnboundSet is 1
(declare-sort UnboundSet 0)
(declare-fun groundTerm_8 () UnboundSet)
(define-fun IsFemale ((BOUND_VARIABLE_666 BoundSet)) Bool true)
(define-fun IsPresenting ((BOUND_VARIABLE_666 BoundSet)) Bool true)
(define-fun IsPineapple ((BOUND_VARIABLE_666 BoundSet)) Bool true)
(define-fun IsWatermelon ((BOUND_VARIABLE_666 BoundSet)) Bool true)
(define-fun IsDisplayed ((BOUND_VARIABLE_666 BoundSet)) Bool false)
(define-fun IsChef ((BOUND_VARIABLE_666 BoundSet)) Bool true)
)
unsat
(error "Cannot get model unless immediately preceded by SAT/NOT_ENTAILED or UNKNOWN response.")
